m = 6; % number of couriers
n = 7; % number of packages

l = [16, 11, 14, 7, 14, 13]; % maximum carriable weight per courier
s = [3, 5, 7, 5, 8, 9, 9]; % weight of each package

D = % distance matrix 
	 [| 12, 4, 10, 12, 6, 9, 3, 6
	 | 4, 3, 10, 6, 3, 7, 11, 7
	 | 5, 4, 10, 5, 6, 3, 11, 7
	 | 4, 8, 11, 5, 5, 7, 8, 10
	 | 6, 6, 12, 11, 5, 9, 11, 12
	 | 11, 5, 7, 9, 7, 12, 7, 10
	 | 12, 4, 10, 4, 11, 10, 10, 8
	 | 5, 7, 9, 4, 4, 6, 8, 4
	 |];